1791862
42,6,63,5,22,48,59,28,4,39,55,31,41,11,0,53,12,46,19,3,47,1,26,16,8,57,14,7,35,58,15,62,23,60,2,20,29,24,40,37,66,33,45,54,25,65,10,18,64,44,67,34,50,38,61,36,52,49,27,43,13,51,32,56,17,9,30,21